#######################
Slurm job id: 17497813_216
Running on machine: p32
Running cmd: /nfs/shared/static-builds/gurobi1202 SOFTMEMLIMIT=125 MIPFocus=3 Presolve=1 TimeLimit=500 seed=15 /nfs/models/miplib2010/k16x240.mps.bz2
#######################
Set parameter TimeLimit to value 500
Set parameter SoftMemLimit to value 125
Set parameter MIPFocus to value 3
Set parameter LogFile to value 1202-MIPFocus3-Presolve1-TimeLimit500-k16x240-5.log
Set parameter Presolve to value 1
Set parameter Seed to value 15
Using license file /opt/gurobi/gurobi.lic

Gurobi Optimizer version 12.0.2 build v12.0.2rc0 (linux64 - "Ubuntu 22.04.4 LTS")
Copyright (c) 2025, Gurobi Optimization, LLC

Read MPS format model from file /nfs/models/miplib2010/k16x240.mps.bz2
Reading time = 0.00 seconds
k16x240: 256 rows, 480 columns, 960 nonzeros

Using Gurobi shared library /nfs/shared/static-builds/gurobi1202

CPU model: Intel(R) Xeon(R) E-2388G CPU @ 3.20GHz, instruction set [SSE2|AVX|AVX2|AVX512]
Thread count: 8 physical cores, 16 logical processors, using up to 16 threads

Non-default parameters:
TimeLimit  500
SoftMemLimit  125
MIPFocus  3
Presolve  1
Seed  15

Optimize a model with 256 rows, 480 columns and 960 nonzeros
Model fingerprint: 0x4e80885f
Variable types: 240 continuous, 240 integer (240 binary)
Coefficient statistics:
  Matrix range     [1e+00, 1e+03]
  Objective range  [1e+00, 1e+03]
  Bounds range     [1e+00, 1e+03]
  RHS range        [4e+00, 4e+02]
Found heuristic solution: objective 16199.000000
Presolve time: 0.00s
Presolved: 256 rows, 480 columns, 960 nonzeros
Variable types: 240 continuous, 240 integer (240 binary)

Root relaxation: objective 2.769838e+03, 51 iterations, 0.00 seconds (0.00 work units)

    Nodes    |    Current Node    |     Objective Bounds      |     Work
 Expl Unexpl |  Obj  Depth IntInf | Incumbent    BestBd   Gap | It/Node Time

     0     0 2769.83800    0   14 16199.0000 2769.83800  82.9%     -    0s
H    0     0                    11359.000000 2769.83800  75.6%     -    0s
H    0     0                    11195.000000 2769.83800  75.3%     -    0s
H    0     0                    11088.000000 2769.83800  75.0%     -    0s
H    0     0                    11074.000000 2769.83800  75.0%     -    0s
H    0     0                    10916.000000 8116.87580  25.6%     -    0s
     0     0 8116.87580    0   26 10916.0000 8116.87580  25.6%     -    0s
H    0     0                    10838.000000 8182.85928  24.5%     -    0s
H    0     0                    10836.000000 8182.85928  24.5%     -    0s
H    0     0                    10826.000000 8182.85928  24.4%     -    0s
H    0     0                    10806.000000 8182.85928  24.3%     -    0s
     0     0 8630.79681    0   24 10806.0000 8630.79681  20.1%     -    0s
     0     0 9005.96027    0   31 10806.0000 9005.96027  16.7%     -    0s
     0     0 9006.18103    0   32 10806.0000 9006.18103  16.7%     -    0s
     0     0 9006.18103    0   32 10806.0000 9006.18103  16.7%     -    0s
     0     0 9130.74861    0   38 10806.0000 9130.74861  15.5%     -    0s
     0     0 9280.36239    0   29 10806.0000 9280.36239  14.1%     -    0s
H    0     0                    10804.000000 9280.36239  14.1%     -    0s
H    0     0                    10779.000000 9280.36239  13.9%     -    0s
H    0     0                    10732.000000 9280.36239  13.5%     -    0s
     0     0 9280.36239    0   30 10732.0000 9280.36239  13.5%     -    0s
     0     0 9300.96305    0   43 10732.0000 9300.96305  13.3%     -    0s
     0     0 9300.96305    0   43 10732.0000 9300.96305  13.3%     -    0s
H    0     0                    10711.000000 9300.96305  13.2%     -    0s
H    0     0                    10681.000000 9300.96305  12.9%     -    0s
     0     2 9300.96305    0   43 10681.0000 9300.96305  12.9%     -    0s
H 1469  1386                    10678.000000 9661.89244  9.52%  36.6    0s
H 1472  1318                    10674.000000 9661.89244  9.48%  36.6    1s
  5631  3458 10399.8200   30   21 10674.0000 10340.8364  3.12%  86.8    5s
 33971   482 10667.8492   34    6 10674.0000 10665.9383  0.08%  41.5   10s

Cutting planes:
  Lift-and-project: 7
  Cover: 2
  Implied bound: 13
  Dual implied bound: 6
  MIR: 134
  Mixing: 1
  Flow cover: 516
  Flow path: 33
  Zero half: 30
  Network: 26
  Relax-and-lift: 4

Explored 34438 nodes (1414056 simplex iterations) in 10.03 seconds (13.93 work units)
Thread count was 16 (of 16 available processors)

Solution count 10: 10674 10678 10681 ... 10836

Optimal solution found (tolerance 1.00e-04)
Best objective 1.067400000000e+04, best bound 1.067300000000e+04, gap 0.0094%
